(define-fun assumption.0 ((RTL.compressed_instr (_ BitVec 1)) (RTL.instr_jal (_ BitVec 1)) (RTL.latched_rd (_ BitVec 5)) (RTL.mem_instr (_ BitVec 1)) (RTL.mem_state (_ BitVec 2)) (RTL.mem_do_prefetch (_ BitVec 1)) (RTL.mem_valid (_ BitVec 1)) (RTL.cpu_state (_ BitVec 8)) (RTL.latched_branch (_ BitVec 1)) (RTL.latched_store (_ BitVec 1)) (RTL.decoded_rd (_ BitVec 5)) (RTL.mem_wordsize (_ BitVec 2)) (RTL.decoder_trigger (_ BitVec 1)) (RTL.trap (_ BitVec 1)) (RTL.mem_do_rinst (_ BitVec 1)) (RTL.instr_retirq (_ BitVec 1))) Bool (and (and true (or (or (not (= ((_ extract 0 0) RTL.mem_valid) ((_ extract 0 0) (_ bv1 1)))) (not (= ((_ extract 1 1) RTL.mem_state) ((_ extract 1 1) (_ bv3 2))))) (not (= ((_ extract 0 0) RTL.mem_state) ((_ extract 0 0) (_ bv3 2)))))) (not (and (and (and (and (and (and (and (and (and (and (and (and (and (and (and (= RTL.mem_instr (_ bv1 1)) (= RTL.mem_do_prefetch (_ bv0 1))) (= RTL.mem_valid (_ bv1 1))) (= RTL.compressed_instr (_ bv0 1))) (= RTL.instr_jal (_ bv0 1))) (= RTL.latched_rd (_ bv0 5))) (= RTL.instr_retirq (_ bv0 1))) (= RTL.mem_do_rinst (_ bv1 1))) (= RTL.trap (_ bv0 1))) (= RTL.mem_state (_ bv3 2))) (= RTL.decoder_trigger (_ bv0 1))) (and (= RTL.decoder_trigger (_ bv0 1)) (= ((_ extract 0 0) RTL.mem_wordsize) ((_ extract 0 0) (_ bv0 2))))) (= RTL.decoded_rd (_ bv0 5))) (= RTL.latched_store (_ bv0 1))) (= RTL.latched_branch (_ bv0 1))) (= RTL.cpu_state (_ bv64 8))))))
(define-fun assumption.1 ((RTL.latched_store (_ BitVec 1)) (RTL.decoded_rd (_ BitVec 5)) (RTL.mem_instr (_ BitVec 1)) (RTL.mem_do_wdata (_ BitVec 1)) (RTL.mem_do_rinst (_ BitVec 1)) (RTL.trap (_ BitVec 1)) (RTL.instr_jal (_ BitVec 1)) (RTL.instr_retirq (_ BitVec 1)) (RTL.cpu_state (_ BitVec 8)) (RTL.latched_rd (_ BitVec 5)) (RTL.do_waitirq (_ BitVec 1)) (RTL.mem_state (_ BitVec 2)) (RTL.decoder_trigger (_ BitVec 1)) (RTL.mem_do_rdata (_ BitVec 1)) (RTL.latched_branch (_ BitVec 1)) (RTL.mem_valid (_ BitVec 1))) Bool (and true (not (and (and (and (and (and (and (and (and (and (and (and (and (and (and (and (= RTL.mem_do_wdata (_ bv0 1)) (= RTL.mem_do_rinst (_ bv1 1))) (= RTL.trap (_ bv0 1))) (= RTL.latched_store (_ bv0 1))) (= RTL.decoded_rd (_ bv16 5))) (= RTL.mem_instr (_ bv1 1))) (= RTL.instr_jal (_ bv0 1))) (= RTL.mem_valid (_ bv1 1))) (= RTL.latched_branch (_ bv0 1))) (= RTL.mem_do_rdata (_ bv0 1))) (= RTL.decoder_trigger (_ bv0 1))) (= RTL.mem_state (_ bv0 2))) (= RTL.do_waitirq (_ bv0 1))) (and (= RTL.do_waitirq (_ bv0 1)) (= ((_ extract 4 3) RTL.latched_rd) ((_ extract 4 3) (_ bv31 5))))) (= RTL.cpu_state (_ bv64 8))) (= RTL.instr_retirq (_ bv0 1))))))
(define-fun assumption.2 ((RTL.mem_instr (_ BitVec 1)) (RTL.latched_store (_ BitVec 1)) (RTL.mem_state (_ BitVec 2)) (RTL.instr_jal (_ BitVec 1)) (RTL.mem_valid (_ BitVec 1)) (RTL.instr_retirq (_ BitVec 1)) (RTL.mem_do_rdata (_ BitVec 1)) (RTL.mem_do_rinst (_ BitVec 1)) (RTL.cpu_state (_ BitVec 8)) (RTL.do_waitirq (_ BitVec 1)) (RTL.trap (_ BitVec 1)) (RTL.decoder_trigger (_ BitVec 1)) (RTL.mem_do_wdata (_ BitVec 1)) (RTL.latched_branch (_ BitVec 1))) Bool (and (and (and (and (and true (or (or (not (= ((_ extract 0 0) RTL.latched_branch) ((_ extract 0 0) (_ bv1 1)))) (not (= ((_ extract 5 5) RTL.cpu_state) ((_ extract 5 5) (_ bv32 8))))) (not (= ((_ extract 0 0) RTL.cpu_state) ((_ extract 0 0) (_ bv32 8)))))) (or (not (= ((_ extract 4 4) RTL.cpu_state) ((_ extract 4 4) (_ bv16 8)))) (not (= ((_ extract 0 0) RTL.cpu_state) ((_ extract 0 0) (_ bv16 8)))))) (or (or (not (= ((_ extract 0 0) RTL.mem_valid) ((_ extract 0 0) (_ bv1 1)))) (not (= ((_ extract 0 0) RTL.mem_instr) ((_ extract 0 0) (_ bv1 1))))) (not (= ((_ extract 1 1) RTL.mem_state) ((_ extract 1 1) (_ bv3 2)))))) (or (or (not (= ((_ extract 0 0) RTL.mem_valid) ((_ extract 0 0) (_ bv1 1)))) (not (= ((_ extract 0 0) RTL.mem_instr) ((_ extract 0 0) (_ bv1 1))))) (not (= ((_ extract 0 0) RTL.mem_state) ((_ extract 0 0) (_ bv0 2)))))) (not (and (and (and (and (and (and (and (and (and (and (and (and (and (= RTL.latched_store (_ bv0 1)) (= RTL.mem_instr (_ bv1 1))) (= RTL.latched_branch (_ bv0 1))) (= RTL.mem_state (_ bv0 2))) (= RTL.mem_do_wdata (_ bv0 1))) (= RTL.decoder_trigger (_ bv0 1))) (= RTL.trap (_ bv0 1))) (= RTL.do_waitirq (_ bv0 1))) (= RTL.cpu_state (_ bv64 8))) (= RTL.mem_do_rinst (_ bv1 1))) (= RTL.mem_do_rdata (_ bv0 1))) (= RTL.instr_retirq (_ bv0 1))) (= RTL.mem_valid (_ bv1 1))) (= RTL.instr_jal (_ bv0 1))))))
(define-fun assumption.3 ((RTL.decoded_rd (_ BitVec 5)) (RTL.latched_store (_ BitVec 1)) (RTL.compressed_instr (_ BitVec 1)) (RTL.mem_do_wdata (_ BitVec 1)) (RTL.mem_instr (_ BitVec 1)) (RTL.mem_do_rinst (_ BitVec 1)) (RTL.trap (_ BitVec 1)) (RTL.decoder_trigger (_ BitVec 1)) (RTL.mem_do_rdata (_ BitVec 1)) (RTL.latched_rd (_ BitVec 5)) (RTL.mem_state (_ BitVec 2)) (RTL.mem_valid (_ BitVec 1)) (RTL.instr_jal (_ BitVec 1)) (RTL.instr_retirq (_ BitVec 1))) Bool (and true (not (and (and (and (and (and (and (and (and (and (and (and (and (and (= RTL.latched_store (_ bv0 1)) (and (= RTL.latched_store (_ bv0 1)) (= ((_ extract 4 3) RTL.decoded_rd) ((_ extract 4 3) (_ bv19 5))))) (= RTL.instr_retirq (_ bv0 1))) (= RTL.instr_jal (_ bv0 1))) (= RTL.compressed_instr (_ bv0 1))) (= RTL.mem_valid (_ bv0 1))) (= RTL.mem_state (_ bv3 2))) (and (= RTL.mem_state (_ bv3 2)) (= ((_ extract 4 3) RTL.latched_rd) ((_ extract 4 3) (_ bv31 5))))) (= RTL.mem_do_rdata (_ bv0 1))) (= RTL.decoder_trigger (_ bv1 1))) (= RTL.trap (_ bv0 1))) (= RTL.mem_do_rinst (_ bv1 1))) (= RTL.mem_instr (_ bv1 1))) (= RTL.mem_do_wdata (_ bv0 1))))))
(define-fun assumption.4 ((RTL.mem_wordsize (_ BitVec 2)) (RTL.instr_jal (_ BitVec 1)) (RTL.mem_valid (_ BitVec 1)) (RTL.trap (_ BitVec 1)) (RTL.mem_do_rinst (_ BitVec 1)) (RTL.cpu_state (_ BitVec 8)) (RTL.decoder_trigger (_ BitVec 1)) (RTL.latched_store (_ BitVec 1)) (RTL.decoded_rd (_ BitVec 5)) (RTL.mem_do_wdata (_ BitVec 1)) (RTL.mem_do_rdata (_ BitVec 1)) (RTL.mem_state (_ BitVec 2)) (RTL.instr_retirq (_ BitVec 1)) (RTL.mem_instr (_ BitVec 1)) (RTL.latched_rd (_ BitVec 5)) (RTL.compressed_instr (_ BitVec 1))) Bool (and true (not (and (and (and (and (and (and (and (and (and (and (and (and (and (and (and (= RTL.trap (_ bv0 1)) (= RTL.mem_do_rinst (_ bv0 1))) (= RTL.decoder_trigger (_ bv0 1))) (= RTL.mem_wordsize (_ bv3 2))) (= RTL.instr_jal (_ bv0 1))) (= RTL.mem_valid (_ bv1 1))) (= RTL.compressed_instr (_ bv0 1))) (= RTL.cpu_state (_ bv64 8))) (= RTL.latched_rd (_ bv0 5))) (= RTL.mem_instr (_ bv1 1))) (= RTL.instr_retirq (_ bv0 1))) (= RTL.mem_state (_ bv1 2))) (= RTL.mem_do_rdata (_ bv1 1))) (= RTL.mem_do_wdata (_ bv0 1))) (= RTL.decoded_rd (_ bv0 5))) (= RTL.latched_store (_ bv0 1))))))
(define-fun assumption.5 ((RTL.mem_do_rdata (_ BitVec 1)) (RTL.mem_state (_ BitVec 2)) (RTL.mem_do_rinst (_ BitVec 1)) (RTL.trap (_ BitVec 1)) (RTL.instr_retirq (_ BitVec 1)) (RTL.cpu_state (_ BitVec 8)) (RTL.latched_store (_ BitVec 1)) (RTL.compressed_instr (_ BitVec 1)) (RTL.instr_jal (_ BitVec 1)) (RTL.mem_valid (_ BitVec 1)) (RTL.mem_instr (_ BitVec 1)) (RTL.mem_wordsize (_ BitVec 2)) (RTL.decoder_trigger (_ BitVec 1))) Bool (and true (not (and (and (and (and (and (and (and (and (and (and (and (and (= RTL.decoder_trigger (_ bv0 1)) (= RTL.mem_wordsize (_ bv3 2))) (= RTL.mem_instr (_ bv1 1))) (= RTL.mem_valid (_ bv1 1))) (= RTL.instr_jal (_ bv0 1))) (= RTL.compressed_instr (_ bv0 1))) (= RTL.latched_store (_ bv0 1))) (= RTL.cpu_state (_ bv64 8))) (= RTL.instr_retirq (_ bv0 1))) (= RTL.trap (_ bv0 1))) (= RTL.mem_do_rinst (_ bv0 1))) (= RTL.mem_state (_ bv1 2))) (= RTL.mem_do_rdata (_ bv1 1))))))
(define-fun assumption.6 ((RTL.mem_instr (_ BitVec 1)) (RTL.mem_state (_ BitVec 2)) (RTL.instr_retirq (_ BitVec 1)) (RTL.mem_do_rdata (_ BitVec 1)) (RTL.decoder_trigger (_ BitVec 1)) (RTL.trap (_ BitVec 1)) (RTL.mem_do_rinst (_ BitVec 1)) (RTL.latched_store (_ BitVec 1)) (RTL.compressed_instr (_ BitVec 1)) (RTL.mem_valid (_ BitVec 1)) (RTL.instr_jal (_ BitVec 1)) (RTL.cpu_state (_ BitVec 8)) (RTL.do_waitirq (_ BitVec 1))) Bool (and (and true (not (= ((_ extract 0 0) RTL.do_waitirq) ((_ extract 0 0) (_ bv1 1))))) (not (and (and (and (and (and (and (and (and (and (and (and (= RTL.cpu_state (_ bv64 8)) (= RTL.instr_jal (_ bv0 1))) (= RTL.mem_valid (_ bv1 1))) (= RTL.compressed_instr (_ bv0 1))) (= RTL.latched_store (_ bv0 1))) (= RTL.mem_do_rinst (_ bv0 1))) (= RTL.trap (_ bv0 1))) (= RTL.decoder_trigger (_ bv0 1))) (= RTL.mem_do_rdata (_ bv1 1))) (= RTL.instr_retirq (_ bv0 1))) (= RTL.mem_state (_ bv1 2))) (= RTL.mem_instr (_ bv1 1))))))
(define-fun assumption.7 ((RTL.mem_do_rdata (_ BitVec 1)) (RTL.latched_store (_ BitVec 1)) (RTL.mem_state (_ BitVec 2)) (RTL.mem_do_rinst (_ BitVec 1)) (RTL.trap (_ BitVec 1)) (RTL.mem_valid (_ BitVec 1)) (RTL.cpu_state (_ BitVec 8)) (RTL.instr_jal (_ BitVec 1)) (RTL.compressed_instr (_ BitVec 1)) (RTL.mem_instr (_ BitVec 1)) (RTL.instr_retirq (_ BitVec 1)) (RTL.do_waitirq (_ BitVec 1))) Bool (and (and true (not (= ((_ extract 0 0) RTL.do_waitirq) ((_ extract 0 0) (_ bv1 1))))) (not (and (and (and (and (and (and (and (and (and (and (= RTL.instr_retirq (_ bv0 1)) (= RTL.mem_instr (_ bv1 1))) (= RTL.compressed_instr (_ bv0 1))) (= RTL.instr_jal (_ bv0 1))) (= RTL.cpu_state (_ bv64 8))) (= RTL.mem_valid (_ bv1 1))) (= RTL.trap (_ bv0 1))) (= RTL.mem_do_rinst (_ bv0 1))) (= RTL.mem_state (_ bv1 2))) (= RTL.latched_store (_ bv0 1))) (= RTL.mem_do_rdata (_ bv1 1))))))
(define-fun assumption.8 ((RTL.mem_valid (_ BitVec 1)) (RTL.mem_do_rinst (_ BitVec 1)) (RTL.mem_instr (_ BitVec 1)) (RTL.cpu_state (_ BitVec 8)) (RTL.mem_do_rdata (_ BitVec 1)) (RTL.trap (_ BitVec 1)) (RTL.instr_retirq (_ BitVec 1)) (RTL.latched_store (_ BitVec 1)) (RTL.mem_state (_ BitVec 2)) (RTL.instr_jal (_ BitVec 1)) (RTL.do_waitirq (_ BitVec 1))) Bool (and (and true (not (= ((_ extract 0 0) RTL.do_waitirq) ((_ extract 0 0) (_ bv1 1))))) (not (and (and (and (and (and (and (and (and (and (= RTL.instr_jal (_ bv0 1)) (= RTL.mem_state (_ bv1 2))) (= RTL.latched_store (_ bv0 1))) (= RTL.instr_retirq (_ bv0 1))) (= RTL.trap (_ bv0 1))) (= RTL.mem_do_rdata (_ bv1 1))) (= RTL.cpu_state (_ bv64 8))) (= RTL.mem_instr (_ bv1 1))) (= RTL.mem_do_rinst (_ bv0 1))) (= RTL.mem_valid (_ bv1 1))))))
(define-fun assumption.9 ((RTL.instr_retirq (_ BitVec 1)) (RTL.mem_do_rinst (_ BitVec 1)) (RTL.decoded_rd (_ BitVec 5)) (RTL.mem_do_wdata (_ BitVec 1)) (RTL.mem_instr (_ BitVec 1)) (RTL.trap (_ BitVec 1)) (RTL.decoder_trigger (_ BitVec 1)) (RTL.instr_jal (_ BitVec 1)) (RTL.mem_valid (_ BitVec 1)) (RTL.compressed_instr (_ BitVec 1)) (RTL.latched_rd (_ BitVec 5)) (RTL.mem_state (_ BitVec 2)) (RTL.mem_do_rdata (_ BitVec 1)) (RTL.latched_store (_ BitVec 1))) Bool (and true (not (and (and (and (and (and (and (and (and (and (and (and (and (and (= RTL.mem_do_rinst (_ bv1 1)) (= RTL.instr_retirq (_ bv0 1))) (= RTL.latched_store (_ bv0 1))) (= RTL.decoded_rd (_ bv2 5))) (= RTL.mem_do_rdata (_ bv0 1))) (= RTL.mem_state (_ bv3 2))) (= RTL.latched_rd (_ bv0 5))) (= RTL.compressed_instr (_ bv0 1))) (= RTL.mem_valid (_ bv0 1))) (= RTL.instr_jal (_ bv0 1))) (= RTL.decoder_trigger (_ bv1 1))) (= RTL.trap (_ bv0 1))) (= RTL.mem_instr (_ bv1 1))) (= RTL.mem_do_wdata (_ bv0 1))))))
(define-fun assumption.10 ((RTL.latched_store (_ BitVec 1)) (RTL.mem_do_wdata (_ BitVec 1)) (RTL.mem_state (_ BitVec 2)) (RTL.mem_instr (_ BitVec 1)) (RTL.mem_do_rdata (_ BitVec 1)) (RTL.decoder_trigger (_ BitVec 1)) (RTL.trap (_ BitVec 1)) (RTL.mem_do_rinst (_ BitVec 1)) (RTL.compressed_instr (_ BitVec 1)) (RTL.instr_jal (_ BitVec 1)) (RTL.mem_valid (_ BitVec 1)) (RTL.latched_rd (_ BitVec 5)) (RTL.instr_retirq (_ BitVec 1))) Bool (and true (not (and (and (and (and (and (and (and (and (and (and (and (and (= RTL.instr_retirq (_ bv0 1)) (= RTL.latched_rd (_ bv0 5))) (= RTL.mem_valid (_ bv0 1))) (= RTL.instr_jal (_ bv0 1))) (= RTL.compressed_instr (_ bv0 1))) (= RTL.mem_do_rinst (_ bv1 1))) (= RTL.trap (_ bv0 1))) (= RTL.decoder_trigger (_ bv1 1))) (= RTL.mem_do_rdata (_ bv0 1))) (= RTL.mem_instr (_ bv1 1))) (= RTL.mem_state (_ bv3 2))) (= RTL.mem_do_wdata (_ bv0 1))) (= RTL.latched_store (_ bv0 1))))))
(define-fun assumption.11 ((RTL.mem_state (_ BitVec 2)) (RTL.mem_valid (_ BitVec 1)) (RTL.instr_jal (_ BitVec 1)) (RTL.compressed_instr (_ BitVec 1)) (RTL.latched_store (_ BitVec 1)) (RTL.mem_do_wdata (_ BitVec 1)) (RTL.mem_do_rdata (_ BitVec 1)) (RTL.trap (_ BitVec 1)) (RTL.instr_retirq (_ BitVec 1)) (RTL.mem_instr (_ BitVec 1)) (RTL.decoder_trigger (_ BitVec 1)) (RTL.mem_do_rinst (_ BitVec 1))) Bool (and true (not (and (and (and (and (and (and (and (and (and (and (and (= RTL.mem_do_rinst (_ bv1 1)) (= RTL.decoder_trigger (_ bv1 1))) (= RTL.mem_instr (_ bv1 1))) (= RTL.instr_retirq (_ bv0 1))) (= RTL.trap (_ bv0 1))) (= RTL.mem_do_rdata (_ bv0 1))) (= RTL.mem_do_wdata (_ bv0 1))) (= RTL.latched_store (_ bv0 1))) (= RTL.compressed_instr (_ bv0 1))) (= RTL.instr_jal (_ bv0 1))) (= RTL.mem_valid (_ bv0 1))) (= RTL.mem_state (_ bv3 2))))))
(define-fun assumption.12 ((RTL.instr_retirq (_ BitVec 1)) (RTL.trap (_ BitVec 1)) (RTL.mem_do_rinst (_ BitVec 1)) (RTL.mem_state (_ BitVec 2)) (RTL.decoder_trigger (_ BitVec 1)) (RTL.mem_do_rdata (_ BitVec 1)) (RTL.mem_instr (_ BitVec 1)) (RTL.instr_jal (_ BitVec 1)) (RTL.mem_valid (_ BitVec 1)) (RTL.compressed_instr (_ BitVec 1)) (RTL.latched_store (_ BitVec 1))) Bool (and true (not (and (and (and (and (and (and (and (and (and (and (= RTL.latched_store (_ bv0 1)) (= RTL.compressed_instr (_ bv0 1))) (= RTL.mem_valid (_ bv0 1))) (= RTL.instr_jal (_ bv0 1))) (= RTL.mem_instr (_ bv1 1))) (= RTL.mem_do_rdata (_ bv0 1))) (= RTL.decoder_trigger (_ bv1 1))) (= RTL.mem_state (_ bv3 2))) (= RTL.mem_do_rinst (_ bv1 1))) (= RTL.trap (_ bv0 1))) (= RTL.instr_retirq (_ bv0 1))))))
(define-fun assumption.13 ((RTL.latched_store (_ BitVec 1)) (RTL.decoder_trigger (_ BitVec 1)) (RTL.mem_state (_ BitVec 2)) (RTL.mem_instr (_ BitVec 1)) (RTL.mem_valid (_ BitVec 1)) (RTL.instr_jal (_ BitVec 1)) (RTL.compressed_instr (_ BitVec 1)) (RTL.instr_retirq (_ BitVec 1)) (RTL.trap (_ BitVec 1)) (RTL.mem_do_rinst (_ BitVec 1))) Bool (and true (not (and (and (and (and (and (and (and (and (and (= RTL.mem_do_rinst (_ bv1 1)) (= RTL.trap (_ bv0 1))) (= RTL.instr_retirq (_ bv0 1))) (= RTL.compressed_instr (_ bv0 1))) (= RTL.instr_jal (_ bv0 1))) (= RTL.mem_valid (_ bv0 1))) (= RTL.mem_instr (_ bv1 1))) (= RTL.mem_state (_ bv3 2))) (= RTL.decoder_trigger (_ bv1 1))) (= RTL.latched_store (_ bv0 1))))))
(define-fun assumption.14 ((RTL.trap (_ BitVec 1)) (RTL.mem_do_rinst (_ BitVec 1)) (RTL.decoder_trigger (_ BitVec 1)) (RTL.latched_store (_ BitVec 1)) (RTL.mem_valid (_ BitVec 1)) (RTL.instr_jal (_ BitVec 1)) (RTL.compressed_instr (_ BitVec 1)) (RTL.instr_retirq (_ BitVec 1)) (RTL.mem_state (_ BitVec 2))) Bool (and true (not (and (and (and (and (and (and (and (and (= RTL.mem_state (_ bv3 2)) (= RTL.instr_retirq (_ bv0 1))) (= RTL.compressed_instr (_ bv0 1))) (= RTL.instr_jal (_ bv0 1))) (= RTL.mem_valid (_ bv0 1))) (= RTL.latched_store (_ bv0 1))) (= RTL.decoder_trigger (_ bv1 1))) (= RTL.mem_do_rinst (_ bv1 1))) (= RTL.trap (_ bv0 1))))))
(define-fun assumption.15 ((RTL.compressed_instr (_ BitVec 1)) (RTL.trap (_ BitVec 1)) (RTL.mem_valid (_ BitVec 1)) (RTL.mem_instr (_ BitVec 1)) (RTL.is_beq_bne_blt_bge_bltu_bgeu (_ BitVec 1)) (RTL.instr_retirq (_ BitVec 1)) (RTL.latched_branch (_ BitVec 1)) (RTL.mem_wordsize (_ BitVec 2)) (RTL.cpu_state (_ BitVec 8)) (RTL.decoder_trigger (_ BitVec 1)) (RTL.instr_jal (_ BitVec 1)) (RTL.latched_rd (_ BitVec 5)) (RTL.mem_state (_ BitVec 2)) (RTL.decoded_rd (_ BitVec 5)) (RTL.mem_do_wdata (_ BitVec 1)) (RTL.mem_do_rdata (_ BitVec 1)) (RTL.latched_store (_ BitVec 1)) (RTL.instr_jalr (_ BitVec 1))) Bool (and true (not (and (and (and (and (and (and (and (and (and (and (and (and (and (and (and (and (and (= RTL.instr_retirq (_ bv0 1)) (= RTL.latched_branch (_ bv0 1))) (= RTL.mem_wordsize (_ bv3 2))) (= RTL.cpu_state (_ bv64 8))) (= RTL.instr_jal (_ bv0 1))) (= RTL.compressed_instr (_ bv0 1))) (= RTL.trap (_ bv0 1))) (= RTL.mem_state (_ bv1 2))) (= RTL.mem_valid (_ bv1 1))) (= RTL.mem_instr (_ bv1 1))) (= RTL.mem_do_wdata (_ bv0 1))) (= RTL.is_beq_bne_blt_bge_bltu_bgeu (_ bv0 1))) (= RTL.instr_jalr (_ bv0 1))) (= RTL.latched_store (_ bv0 1))) (= RTL.mem_do_rdata (_ bv1 1))) (= RTL.decoded_rd (_ bv16 5))) (and (= RTL.decoded_rd (_ bv16 5)) (= ((_ extract 4 4) RTL.latched_rd) ((_ extract 4 4) (_ bv1 5))))) (= RTL.decoder_trigger (_ bv1 1))))))
(define-fun assumption.16 ((RTL.instr_retirq (_ BitVec 1)) (RTL.trap (_ BitVec 1)) (RTL.mem_state (_ BitVec 2)) (RTL.decoder_trigger (_ BitVec 1)) (RTL.mem_wordsize (_ BitVec 2)) (RTL.cpu_state (_ BitVec 8)) (RTL.instr_jal (_ BitVec 1)) (RTL.compressed_instr (_ BitVec 1)) (RTL.mem_valid (_ BitVec 1)) (RTL.mem_do_wdata (_ BitVec 1)) (RTL.mem_instr (_ BitVec 1)) (RTL.latched_branch (_ BitVec 1)) (RTL.latched_store (_ BitVec 1))) Bool (and true (not (and (and (and (and (and (and (and (and (and (and (and (and (= RTL.latched_store (_ bv0 1)) (= RTL.latched_branch (_ bv0 1))) (= RTL.mem_instr (_ bv1 1))) (= RTL.mem_do_wdata (_ bv0 1))) (= RTL.mem_valid (_ bv1 1))) (= RTL.compressed_instr (_ bv0 1))) (= RTL.instr_jal (_ bv0 1))) (= RTL.cpu_state (_ bv64 8))) (= RTL.mem_wordsize (_ bv3 2))) (= RTL.decoder_trigger (_ bv1 1))) (= RTL.mem_state (_ bv1 2))) (= RTL.trap (_ bv0 1))) (= RTL.instr_retirq (_ bv0 1))))))
(define-fun assumption.17 ((RTL.mem_do_wdata (_ BitVec 1)) (RTL.latched_store (_ BitVec 1)) (RTL.instr_jalr (_ BitVec 1)) (RTL.is_beq_bne_blt_bge_bltu_bgeu (_ BitVec 1)) (RTL.trap (_ BitVec 1)) (RTL.mem_do_rinst (_ BitVec 1)) (RTL.instr_retirq (_ BitVec 1)) (RTL.mem_instr (_ BitVec 1)) (RTL.decoded_rd (_ BitVec 5)) (RTL.instr_jal (_ BitVec 1)) (RTL.latched_rd (_ BitVec 5)) (RTL.compressed_instr (_ BitVec 1)) (RTL.mem_valid (_ BitVec 1)) (RTL.mem_do_prefetch (_ BitVec 1)) (RTL.mem_state (_ BitVec 2)) (RTL.latched_branch (_ BitVec 1)) (RTL.mem_wordsize (_ BitVec 2)) (RTL.decoder_trigger (_ BitVec 1)) (RTL.mem_do_rdata (_ BitVec 1)) (RTL.cpu_state (_ BitVec 8))) Bool (and true (not (and (and (and (and (and (and (and (and (and (and (and (and (and (and (and (and (and (and (and (= RTL.mem_instr (_ bv1 1)) (= RTL.instr_jal (_ bv0 1))) (= RTL.compressed_instr (_ bv0 1))) (= RTL.mem_valid (_ bv0 1))) (= RTL.mem_state (_ bv0 2))) (= RTL.latched_branch (_ bv0 1))) (= RTL.mem_do_prefetch (_ bv1 1))) (= RTL.mem_do_wdata (_ bv0 1))) (= RTL.is_beq_bne_blt_bge_bltu_bgeu (_ bv0 1))) (= RTL.latched_store (_ bv0 1))) (= RTL.instr_jalr (_ bv0 1))) (= RTL.trap (_ bv0 1))) (= RTL.mem_do_rinst (_ bv0 1))) (= RTL.instr_retirq (_ bv0 1))) (= RTL.cpu_state (_ bv64 8))) (and (= RTL.cpu_state (_ bv64 8)) (= ((_ extract 4 4) RTL.latched_rd) ((_ extract 4 4) (_ bv8 5))))) (and (and (= RTL.cpu_state (_ bv64 8)) (= ((_ extract 4 4) RTL.latched_rd) ((_ extract 4 4) (_ bv8 5)))) (= ((_ extract 4 2) RTL.decoded_rd) ((_ extract 4 2) (_ bv24 5))))) (= RTL.mem_do_rdata (_ bv1 1))) (= RTL.decoder_trigger (_ bv1 1))) (= RTL.mem_wordsize (_ bv2 2))))))
(define-fun assumption.18 ((RTL.mem_do_wdata (_ BitVec 1)) (RTL.is_beq_bne_blt_bge_bltu_bgeu (_ BitVec 1)) (RTL.instr_jalr (_ BitVec 1)) (RTL.latched_store (_ BitVec 1)) (RTL.cpu_state (_ BitVec 8)) (RTL.mem_do_rdata (_ BitVec 1)) (RTL.mem_do_prefetch (_ BitVec 1)) (RTL.compressed_instr (_ BitVec 1)) (RTL.instr_jal (_ BitVec 1)) (RTL.trap (_ BitVec 1)) (RTL.mem_state (_ BitVec 2)) (RTL.latched_branch (_ BitVec 1)) (RTL.instr_retirq (_ BitVec 1)) (RTL.decoder_trigger (_ BitVec 1))) Bool (and true (not (and (and (and (and (and (and (and (and (and (and (and (and (and (= RTL.is_beq_bne_blt_bge_bltu_bgeu (_ bv0 1)) (= RTL.mem_do_wdata (_ bv0 1))) (= RTL.decoder_trigger (_ bv1 1))) (= RTL.instr_retirq (_ bv0 1))) (= RTL.latched_branch (_ bv0 1))) (= RTL.mem_state (_ bv0 2))) (= RTL.trap (_ bv0 1))) (= RTL.instr_jal (_ bv0 1))) (= RTL.compressed_instr (_ bv0 1))) (= RTL.mem_do_prefetch (_ bv1 1))) (= RTL.mem_do_rdata (_ bv1 1))) (= RTL.cpu_state (_ bv64 8))) (= RTL.latched_store (_ bv0 1))) (= RTL.instr_jalr (_ bv0 1))))))
(define-fun assumption.19 ((RTL.mem_wordsize (_ BitVec 2)) (RTL.compressed_instr (_ BitVec 1)) (RTL.instr_jal (_ BitVec 1)) (RTL.mem_do_rinst (_ BitVec 1)) (RTL.trap (_ BitVec 1)) (RTL.decoder_trigger (_ BitVec 1)) (RTL.cpu_state (_ BitVec 8)) (RTL.mem_instr (_ BitVec 1)) (RTL.latched_rd (_ BitVec 5)) (RTL.decoded_rd (_ BitVec 5)) (RTL.mem_valid (_ BitVec 1)) (RTL.mem_do_wdata (_ BitVec 1)) (RTL.latched_branch (_ BitVec 1)) (RTL.instr_retirq (_ BitVec 1)) (RTL.mem_state (_ BitVec 2)) (RTL.latched_store (_ BitVec 1))) Bool (and true (not (and (and (and (and (and (and (and (and (and (and (and (and (and (and (and (= RTL.mem_do_rinst (_ bv1 1)) (= RTL.trap (_ bv0 1))) (= RTL.decoder_trigger (_ bv1 1))) (and (= RTL.decoder_trigger (_ bv1 1)) (= ((_ extract 0 0) RTL.mem_wordsize) ((_ extract 0 0) (_ bv0 2))))) (= RTL.compressed_instr (_ bv0 1))) (= RTL.instr_jal (_ bv0 1))) (= RTL.latched_store (_ bv0 1))) (= RTL.mem_state (_ bv1 2))) (= RTL.instr_retirq (_ bv0 1))) (= RTL.latched_branch (_ bv0 1))) (= RTL.mem_do_wdata (_ bv1 1))) (= RTL.mem_valid (_ bv1 1))) (and (= RTL.mem_valid (_ bv1 1)) (= ((_ extract 4 4) RTL.decoded_rd) ((_ extract 4 4) (_ bv30 5))))) (and (and (= RTL.mem_valid (_ bv1 1)) (= ((_ extract 4 4) RTL.decoded_rd) ((_ extract 4 4) (_ bv30 5)))) (= ((_ extract 4 4) RTL.latched_rd) ((_ extract 4 4) (_ bv1 5))))) (= RTL.mem_instr (_ bv1 1))) (= RTL.cpu_state (_ bv64 8))))))
(define-fun assumption.20 ((RTL.mem_state (_ BitVec 2)) (RTL.decoder_trigger (_ BitVec 1)) (RTL.cpu_state (_ BitVec 8)) (RTL.mem_instr (_ BitVec 1)) (RTL.latched_branch (_ BitVec 1)) (RTL.latched_store (_ BitVec 1)) (RTL.mem_do_rinst (_ BitVec 1)) (RTL.trap (_ BitVec 1)) (RTL.instr_retirq (_ BitVec 1)) (RTL.instr_jal (_ BitVec 1)) (RTL.compressed_instr (_ BitVec 1)) (RTL.mem_valid (_ BitVec 1))) Bool (and true (not (and (and (and (and (and (and (and (and (and (and (and (= RTL.mem_valid (_ bv1 1)) (= RTL.compressed_instr (_ bv0 1))) (= RTL.instr_jal (_ bv0 1))) (= RTL.instr_retirq (_ bv0 1))) (= RTL.trap (_ bv0 1))) (= RTL.mem_do_rinst (_ bv1 1))) (= RTL.latched_store (_ bv0 1))) (= RTL.latched_branch (_ bv0 1))) (= RTL.mem_instr (_ bv1 1))) (= RTL.cpu_state (_ bv64 8))) (= RTL.decoder_trigger (_ bv1 1))) (= RTL.mem_state (_ bv1 2))))))
(define-fun assumption.21 ((RTL.mem_do_rinst (_ BitVec 1)) (RTL.mem_instr (_ BitVec 1)) (RTL.cpu_state (_ BitVec 8)) (RTL.latched_store (_ BitVec 1)) (RTL.instr_retirq (_ BitVec 1)) (RTL.latched_branch (_ BitVec 1)) (RTL.compressed_instr (_ BitVec 1)) (RTL.instr_jal (_ BitVec 1)) (RTL.decoder_trigger (_ BitVec 1)) (RTL.trap (_ BitVec 1))) Bool (and true (not (and (and (and (and (and (and (and (and (and (= RTL.trap (_ bv0 1)) (= RTL.decoder_trigger (_ bv1 1))) (= RTL.instr_jal (_ bv0 1))) (= RTL.compressed_instr (_ bv0 1))) (= RTL.latched_branch (_ bv0 1))) (= RTL.instr_retirq (_ bv0 1))) (= RTL.latched_store (_ bv0 1))) (= RTL.cpu_state (_ bv64 8))) (= RTL.mem_instr (_ bv1 1))) (= RTL.mem_do_rinst (_ bv1 1))))))
(define-fun assumption.22 ((RTL.decoder_trigger (_ BitVec 1)) (RTL.latched_store (_ BitVec 1)) (RTL.instr_retirq (_ BitVec 1)) (RTL.latched_branch (_ BitVec 1)) (RTL.mem_do_rinst (_ BitVec 1)) (RTL.trap (_ BitVec 1)) (RTL.cpu_state (_ BitVec 8)) (RTL.compressed_instr (_ BitVec 1)) (RTL.instr_jal (_ BitVec 1))) Bool (and true (not (and (and (and (and (and (and (and (and (= RTL.instr_jal (_ bv0 1)) (= RTL.compressed_instr (_ bv0 1))) (= RTL.cpu_state (_ bv64 8))) (= RTL.trap (_ bv0 1))) (= RTL.mem_do_rinst (_ bv1 1))) (= RTL.latched_branch (_ bv0 1))) (= RTL.instr_retirq (_ bv0 1))) (= RTL.latched_store (_ bv0 1))) (= RTL.decoder_trigger (_ bv1 1))))))
(define-fun assumption.23 ((RTL.cpu_state (_ BitVec 8)) (RTL.instr_retirq (_ BitVec 1)) (RTL.mem_state (_ BitVec 2)) (RTL.mem_do_rdata (_ BitVec 1)) (RTL.mem_instr (_ BitVec 1)) (RTL.mem_valid (_ BitVec 1)) (RTL.mem_do_prefetch (_ BitVec 1)) (RTL.compressed_instr (_ BitVec 1)) (RTL.latched_store (_ BitVec 1)) (RTL.decoded_rd (_ BitVec 5)) (RTL.trap (_ BitVec 1)) (RTL.mem_do_rinst (_ BitVec 1)) (RTL.latched_rd (_ BitVec 5)) (RTL.mem_wordsize (_ BitVec 2)) (RTL.decoder_trigger (_ BitVec 1))) Bool (and true (not (and (and (and (and (and (and (and (and (and (and (and (and (and (and (= RTL.mem_state (_ bv3 2)) (= RTL.mem_instr (_ bv1 1))) (= RTL.mem_do_prefetch (_ bv0 1))) (= RTL.cpu_state (_ bv64 8))) (= RTL.instr_retirq (_ bv0 1))) (= RTL.decoder_trigger (_ bv0 1))) (and (= RTL.decoder_trigger (_ bv0 1)) (= ((_ extract 0 0) RTL.mem_wordsize) ((_ extract 0 0) (_ bv0 2))))) (= RTL.latched_rd (_ bv0 5))) (= RTL.mem_do_rdata (_ bv0 1))) (= RTL.mem_do_rinst (_ bv1 1))) (= RTL.trap (_ bv0 1))) (= RTL.decoded_rd (_ bv16 5))) (= RTL.latched_store (_ bv0 1))) (= RTL.compressed_instr (_ bv0 1))) (= RTL.mem_valid (_ bv0 1))))))
(define-fun assumption.24 ((RTL.instr_retirq (_ BitVec 1)) (RTL.mem_instr (_ BitVec 1)) (RTL.cpu_state (_ BitVec 8)) (RTL.latched_store (_ BitVec 1)) (RTL.mem_state (_ BitVec 2)) (RTL.mem_do_rdata (_ BitVec 1)) (RTL.mem_do_rinst (_ BitVec 1)) (RTL.mem_do_prefetch (_ BitVec 1)) (RTL.trap (_ BitVec 1)) (RTL.mem_valid (_ BitVec 1)) (RTL.decoder_trigger (_ BitVec 1)) (RTL.mem_do_wdata (_ BitVec 1)) (RTL.do_waitirq (_ BitVec 1))) Bool (and (and (and (and (and (and (and (and (and (and (and (and (and (and (and (and (and (and (and true (or (not (= ((_ extract 0 0) RTL.trap) ((_ extract 0 0) (_ bv1 1)))) (not (= ((_ extract 7 7) RTL.cpu_state) ((_ extract 7 7) (_ bv64 8)))))) (not (= ((_ extract 0 0) RTL.do_waitirq) ((_ extract 0 0) (_ bv1 1))))) (or (not (= ((_ extract 0 0) RTL.mem_do_rinst) ((_ extract 0 0) (_ bv1 1)))) (not (= ((_ extract 0 0) RTL.decoder_trigger) ((_ extract 0 0) (_ bv1 1)))))) (or (or (or (not (= ((_ extract 0 0) RTL.mem_state) ((_ extract 0 0) (_ bv3 2)))) (not (= ((_ extract 7 7) RTL.cpu_state) ((_ extract 7 7) (_ bv64 8))))) (not (= ((_ extract 0 0) RTL.mem_valid) ((_ extract 0 0) (_ bv0 1))))) (not (= ((_ extract 0 0) RTL.decoder_trigger) ((_ extract 0 0) (_ bv1 1)))))) (or (or (or (or (or (or (or (or (or (or (or (not (= ((_ extract 0 0) RTL.mem_do_rinst) ((_ extract 0 0) (_ bv0 1)))) (not (= ((_ extract 7 7) RTL.cpu_state) ((_ extract 7 7) (_ bv64 8))))) (not (= ((_ extract 6 6) RTL.cpu_state) ((_ extract 6 6) (_ bv64 8))))) (not (= ((_ extract 5 5) RTL.cpu_state) ((_ extract 5 5) (_ bv64 8))))) (not (= ((_ extract 4 4) RTL.cpu_state) ((_ extract 4 4) (_ bv64 8))))) (not (= ((_ extract 3 3) RTL.cpu_state) ((_ extract 3 3) (_ bv64 8))))) (not (= ((_ extract 2 2) RTL.cpu_state) ((_ extract 2 2) (_ bv64 8))))) (not (= ((_ extract 1 1) RTL.cpu_state) ((_ extract 1 1) (_ bv64 8))))) (not (= ((_ extract 0 0) RTL.cpu_state) ((_ extract 0 0) (_ bv64 8))))) (not (= ((_ extract 0 0) RTL.latched_store) ((_ extract 0 0) (_ bv0 1))))) (not (= ((_ extract 1 1) RTL.mem_state) ((_ extract 1 1) (_ bv1 2))))) (not (= ((_ extract 0 0) RTL.mem_state) ((_ extract 0 0) (_ bv1 2)))))) (or (not (= ((_ extract 0 0) RTL.decoder_trigger) ((_ extract 0 0) (_ bv1 1)))) (not (= ((_ extract 0 0) RTL.mem_do_prefetch) ((_ extract 0 0) (_ bv1 1)))))) (or (or (or (or (or (not (= ((_ extract 0 0) RTL.mem_do_prefetch) ((_ extract 0 0) (_ bv0 1)))) (not (= ((_ extract 0 0) RTL.mem_do_rinst) ((_ extract 0 0) (_ bv0 1))))) (not (= ((_ extract 0 0) RTL.mem_do_rdata) ((_ extract 0 0) (_ bv0 1))))) (not (= ((_ extract 1 1) RTL.mem_state) ((_ extract 1 1) (_ bv1 2))))) (not (= ((_ extract 0 0) RTL.mem_state) ((_ extract 0 0) (_ bv1 2))))) (not (= ((_ extract 7 7) RTL.cpu_state) ((_ extract 7 7) (_ bv32 8)))))) (or (not (= ((_ extract 0 0) RTL.mem_do_rinst) ((_ extract 0 0) (_ bv1 1)))) (not (= ((_ extract 5 5) RTL.cpu_state) ((_ extract 5 5) (_ bv32 8)))))) (or (not (= ((_ extract 0 0) RTL.mem_do_rinst) ((_ extract 0 0) (_ bv1 1)))) (not (= ((_ extract 4 4) RTL.cpu_state) ((_ extract 4 4) (_ bv16 8)))))) (or (or (or (or (or (not (= ((_ extract 0 0) RTL.mem_do_prefetch) ((_ extract 0 0) (_ bv0 1)))) (not (= ((_ extract 0 0) RTL.mem_do_rinst) ((_ extract 0 0) (_ bv0 1))))) (not (= ((_ extract 0 0) RTL.mem_do_rdata) ((_ extract 0 0) (_ bv0 1))))) (not (= ((_ extract 1 1) RTL.mem_state) ((_ extract 1 1) (_ bv1 2))))) (not (= ((_ extract 0 0) RTL.mem_state) ((_ extract 0 0) (_ bv1 2))))) (not (= ((_ extract 7 7) RTL.cpu_state) ((_ extract 7 7) (_ bv8 8)))))) (or (not (= ((_ extract 2 2) RTL.cpu_state) ((_ extract 2 2) (_ bv4 8)))) (not (= ((_ extract 0 0) RTL.mem_do_rinst) ((_ extract 0 0) (_ bv1 1)))))) (or (or (or (or (or (not (= ((_ extract 0 0) RTL.mem_do_prefetch) ((_ extract 0 0) (_ bv0 1)))) (not (= ((_ extract 0 0) RTL.mem_do_rinst) ((_ extract 0 0) (_ bv0 1))))) (not (= ((_ extract 7 7) RTL.cpu_state) ((_ extract 7 7) (_ bv64 8))))) (not (= ((_ extract 0 0) RTL.mem_do_rdata) ((_ extract 0 0) (_ bv0 1))))) (not (= ((_ extract 1 1) RTL.mem_state) ((_ extract 1 1) (_ bv1 2))))) (not (= ((_ extract 0 0) RTL.mem_state) ((_ extract 0 0) (_ bv1 2)))))) (or (or (or (or (or (not (= ((_ extract 0 0) RTL.mem_do_prefetch) ((_ extract 0 0) (_ bv0 1)))) (not (= ((_ extract 0 0) RTL.mem_do_rinst) ((_ extract 0 0) (_ bv0 1))))) (not (= ((_ extract 0 0) RTL.mem_do_rdata) ((_ extract 0 0) (_ bv0 1))))) (not (= ((_ extract 1 1) RTL.mem_state) ((_ extract 1 1) (_ bv1 2))))) (not (= ((_ extract 0 0) RTL.mem_state) ((_ extract 0 0) (_ bv1 2))))) (not (= ((_ extract 7 7) RTL.cpu_state) ((_ extract 7 7) (_ bv4 8)))))) (or (or (or (or (or (not (= ((_ extract 0 0) RTL.mem_do_prefetch) ((_ extract 0 0) (_ bv0 1)))) (not (= ((_ extract 0 0) RTL.mem_do_rinst) ((_ extract 0 0) (_ bv0 1))))) (not (= ((_ extract 0 0) RTL.mem_do_rdata) ((_ extract 0 0) (_ bv0 1))))) (not (= ((_ extract 1 1) RTL.mem_state) ((_ extract 1 1) (_ bv1 2))))) (not (= ((_ extract 0 0) RTL.mem_state) ((_ extract 0 0) (_ bv1 2))))) (not (= ((_ extract 7 7) RTL.cpu_state) ((_ extract 7 7) (_ bv8 8)))))) (or (or (or (or (or (not (= ((_ extract 0 0) RTL.mem_state) ((_ extract 0 0) (_ bv3 2)))) (not (= ((_ extract 0 0) RTL.mem_do_rinst) ((_ extract 0 0) (_ bv0 1))))) (not (= ((_ extract 6 6) RTL.cpu_state) ((_ extract 6 6) (_ bv64 8))))) (not (= ((_ extract 0 0) RTL.latched_store) ((_ extract 0 0) (_ bv0 1))))) (not (= ((_ extract 0 0) RTL.mem_valid) ((_ extract 0 0) (_ bv0 1))))) (not (= ((_ extract 0 0) RTL.mem_do_wdata) ((_ extract 0 0) (_ bv1 1)))))) (or (or (or (or (not (= ((_ extract 1 1) RTL.mem_state) ((_ extract 1 1) (_ bv1 2)))) (not (= ((_ extract 0 0) RTL.mem_state) ((_ extract 0 0) (_ bv1 2))))) (not (= ((_ extract 0 0) RTL.mem_do_wdata) ((_ extract 0 0) (_ bv1 1))))) (not (= ((_ extract 7 7) RTL.cpu_state) ((_ extract 7 7) (_ bv32 8))))) (not (= ((_ extract 1 1) RTL.cpu_state) ((_ extract 1 1) (_ bv32 8)))))) (or (or (or (or (not (= ((_ extract 0 0) RTL.mem_do_prefetch) ((_ extract 0 0) (_ bv0 1)))) (not (= ((_ extract 0 0) RTL.mem_state) ((_ extract 0 0) (_ bv3 2))))) (not (= ((_ extract 7 7) RTL.cpu_state) ((_ extract 7 7) (_ bv64 8))))) (not (= ((_ extract 1 1) RTL.cpu_state) ((_ extract 1 1) (_ bv64 8))))) (not (= ((_ extract 0 0) RTL.mem_valid) ((_ extract 0 0) (_ bv0 1)))))) (or (or (or (or (or (or (or (or (or (or (or (not (= ((_ extract 0 0) RTL.mem_state) ((_ extract 0 0) (_ bv3 2)))) (not (= ((_ extract 0 0) RTL.mem_do_rinst) ((_ extract 0 0) (_ bv0 1))))) (not (= ((_ extract 7 7) RTL.cpu_state) ((_ extract 7 7) (_ bv64 8))))) (not (= ((_ extract 6 6) RTL.cpu_state) ((_ extract 6 6) (_ bv64 8))))) (not (= ((_ extract 5 5) RTL.cpu_state) ((_ extract 5 5) (_ bv64 8))))) (not (= ((_ extract 4 4) RTL.cpu_state) ((_ extract 4 4) (_ bv64 8))))) (not (= ((_ extract 3 3) RTL.cpu_state) ((_ extract 3 3) (_ bv64 8))))) (not (= ((_ extract 2 2) RTL.cpu_state) ((_ extract 2 2) (_ bv64 8))))) (not (= ((_ extract 1 1) RTL.cpu_state) ((_ extract 1 1) (_ bv64 8))))) (not (= ((_ extract 0 0) RTL.cpu_state) ((_ extract 0 0) (_ bv64 8))))) (not (= ((_ extract 0 0) RTL.latched_store) ((_ extract 0 0) (_ bv0 1))))) (not (= ((_ extract 0 0) RTL.mem_valid) ((_ extract 0 0) (_ bv0 1)))))) (not (and (and (and (and (and (and (and (and (and (and (= RTL.decoder_trigger (_ bv0 1)) (= RTL.mem_valid (_ bv0 1))) (= RTL.trap (_ bv0 1))) (= RTL.mem_do_prefetch (_ bv0 1))) (= RTL.mem_do_rinst (_ bv1 1))) (= RTL.mem_do_rdata (_ bv0 1))) (= RTL.mem_state (_ bv3 2))) (= RTL.latched_store (_ bv0 1))) (= RTL.cpu_state (_ bv64 8))) (= RTL.mem_instr (_ bv1 1))) (= RTL.instr_retirq (_ bv0 1))))))
